(set-logic HORN)
(declare-fun inv ((_ BitVec 64) (_ BitVec 64) (_ BitVec 64) (_ BitVec 64) ) Bool)
(assert (forall ((m (_ BitVec 64)) (a (_ BitVec 64)) (j (_ BitVec 64)) (k (_ BitVec 64))) 
       (=> ( and ( or ( bvsle a m ) ( = j (_ bv0 64) ) ) ( bvslt j (_ bv1 64) ) ( = k (_ bv0 64) ) ) (inv m a j k))))
(assert (forall ((m (_ BitVec 64)) (a (_ BitVec 64)) (j (_ BitVec 64)) (k (_ BitVec 64)) (m! (_ BitVec 64)) (a! (_ BitVec 64)) (j! (_ BitVec 64)) (k! (_ BitVec 64))) 
       (=> (and (inv m a j k) ( or ( and ( = j! j ) ( bvslt k (_ bv1 64) ) ( bvslt m a! ) ( = m! a! ) ( = k! ( bvadd k (_ bv1 64) ) ) ) ( and ( = j! j ) ( bvslt k (_ bv1 64) ) ( bvsgt m a! ) ( = k! ( bvadd k (_ bv1 64) ) ) ) )) (inv m! a! j! k!))))
(assert (forall ((m (_ BitVec 64)) (a (_ BitVec 64)) (j (_ BitVec 64)) (k (_ BitVec 64))) 
       (=> (inv m a j k) ( or ( bvslt k (_ bv1 64) ) ( bvslt a m ) ( = j ( bvadd (_ bv1 64) ( bvnot (_ bv1 64) ) ) ) ))))
(check-sat)
